************************************************************************
file with basedata            : n/a
initial value random generator: n/a
************************************************************************
projects                      :  1
jobs (incl. supersource/sink ):  122
horizon                       :  659
RESOURCES
  - renewable                 :  4   R
  - nonrenewable              :  0   N
  - doubly constrained        :  0   D
************************************************************************
PROJECT INFORMATION:
pronr.  #jobs rel.date duedate tardcost  MPM-Time
    1    120      0      101       92      101
************************************************************************
PRECEDENCE RELATIONS:
jobnr.    #modes  #successors   successors
   1        1          3           2   3   4
   2        1          1          19
   3        1          3           5   6   9
   4        1          3           7  11  51
   5        1          2          13  18
   6        1          3           8  35  65
   7        1          2          10 109
   8        1          3          12  22  43
   9        1          3          24  45  76
  10        1          2          29  69
  11        1          3          26  47  59
  12        1          3          14  21 108
  13        1          3          15  17  24
  14        1          3          16  27  54
  15        1          3          50  95 105
  16        1          3          20  23  25
  17        1          3          33  41  52
  18        1          3          30  31  81
  19        1          1          70
  20        1          3          53  67 118
  21        1          3          39  74 112
  22        1          2          28  38
  23        1          1          94
  24        1          3          31  57  86
  25        1          3          58  88  93
  26        1          2          32  62
  27        1          1          89
  28        1          3          44  56  62
  29        1          3          34  61  81
  30        1          2          37  93
  31        1          3          52  78 115
  32        1          3          41  53 113
  33        1          2          36  85
  34        1          2          40  48
  35        1          2          49  74
  36        1          3          43  53  77
  37        1          3          46  64  66
  38        1          1          42
  39        1          2          73  91
  40        1          2          62  83
  41        1          1          72
  42        1          3          73  76  84
  43        1          1         113
  44        1          3          49  81  95
  45        1          3          82  83  84
  46        1          3          97 102 111
  47        1          2          86  89
  48        1          1          95
  49        1          1          67
  50        1          3          55  63 100
  51        1          3          54  71 106
  52        1          2          67  84
  53        1          3          99 105 114
  54        1          1          55
  55        1          1          91
  56        1          1          68
  57        1          1         114
  58        1          1          60
  59        1          1          68
  60        1          1          69
  61        1          2          72 100
  62        1          2          75 110
  63        1          2          69 102
  64        1          2          79  82
  65        1          1         112
  66        1          2          80  82
  67        1          2          73  93
  68        1          1          96
  69        1          1          71
  70        1          2          87  98
  71        1          1         104
  72        1          3          76  77 103
  73        1          1          99
  74        1          2         100 107
  75        1          1          79
  76        1          1          98
  77        1          1         108
  78        1          1          79
  79        1          1         108
  80        1          2          87  88
  81        1          1         106
  82        1          3          87  88 101
  83        1          1          90
  84        1          1          94
  85        1          2          90 113
  86        1          2          91 117
  87        1          2         103 110
  88        1          1         106
  89        1          3          92  97 104
  90        1          1          92
  91        1          3          94 107 120
  92        1          3          99 101 120
  93        1          1          97
  94        1          1         101
  95        1          1         104
  96        1          2         102 105
  97        1          1         110
  98        1          1         115
  99        1          1         107
 100        1          1         111
 101        1          1         118
 102        1          2         103 120
 103        1          1         117
 104        1          1         111
 105        1          1         121
 106        1          1         116
 107        1          1         119
 108        1          1         121
 109        1          1         112
 110        1          1         119
 111        1          1         115
 112        1          1         116
 113        1          1         114
 114        1          1         119
 115        1          1         116
 116        1          1         117
 117        1          1         118
 118        1          1         121
 119        1          1         122
 120        1          1         122
 121        1          1         122
 122        1          0        
************************************************************************
REQUESTS/DURATIONS:
jobnr. mode duration  R 1  R 2  R 3  R 4
------------------------------------------------------------------------
  1      1     0    
  2      1     3       2   2   2
                       4   4   4
                       2   2   2
                       1   1   1
  3      1     3       0   0   0
                       5   9   9
                       1   2   2
                       3   6   6
  4      1     6       0   0   0   0   0   0
                       7   7   7   4   7   7
                      10  10  10   5  10  10
                       8   8   8   4   8   8
  5      1     3       0   0   0
                       0   0   0
                       4   4   7
                       2   2   4
  6      1    10       5   5   5   5   3   5   5   5   5   5
                       0   0   0   0   0   0   0   0   0   0
                       4   4   4   4   2   4   4   4   4   4
                       1   1   1   1   1   1   1   1   1   1
  7      1     4       0   0   0   0
                       9   9   5   9
                       3   3   2   3
                       8   8   4   8
  8      1     7       8   8   8   8   4   8   8
                       0   0   0   0   0   0   0
                       8   8   8   8   4   8   8
                       2   2   2   2   1   2   2
  9      1     7       8   8   8   8   8   8   4
                       0   0   0   0   0   0   0
                      10  10  10  10  10  10   5
                      10  10  10  10  10  10   5
 10      1     6       6   6   6   6   6   3
                       9   9   9   9   9   5
                       8   8   8   8   8   4
                       6   6   6   6   6   3
 11      1     9       0   0   0   0   0   0   0   0   0
                       0   0   0   0   0   0   0   0   0
                       1   1   1   1   1   1   1   1   1
                       0   0   0   0   0   0   0   0   0
 12      1     9       1   1   1   1   1   1   1   1   1
                       1   1   1   1   1   1   1   1   1
                      10   5   5  10  10  10   5  10  10
                       3   2   2   3   3   3   2   3   3
 13      1     7       0   0   0   0   0   0   0
                       6   3   6   6   6   6   6
                       4   2   4   4   4   4   4
                       9   5   9   9   9   9   9
 14      1     1       0
                       3
                       5
                       2
 15      1     7       3   5   5   5   3   5   5
                       1   2   2   2   1   2   2
                       3   5   5   5   3   5   5
                       0   0   0   0   0   0   0
 16      1     2       0   0
                       4   4
                       4   4
                       5   5
 17      1     9       8   8   8   4   8   4   8   8   8
                       2   2   2   1   2   1   2   2   2
                       5   5   5   3   5   3   5   5   5
                       7   7   7   4   7   4   7   7   7
 18      1     8       5   9   9   5   9   9   9   5
                       1   1   1   1   1   1   1   1
                       5  10  10   5  10  10  10   5
                       2   4   4   2   4   4   4   2
 19      1    10       2   4   4   4   2   4   4   4   2   4
                       5  10  10  10   5  10  10  10   5  10
                       5   9   9   9   5   9   9   9   5   9
                       0   0   0   0   0   0   0   0   0   0
 20      1     8      10  10   5  10  10  10  10   5
                       2   2   1   2   2   2   2   1
                       0   0   0   0   0   0   0   0
                       2   2   1   2   2   2   2   1
 21      1    10      10  10  10  10   5  10  10  10   5  10
                      10  10  10  10   5  10  10  10   5  10
                       6   6   6   6   3   6   6   6   3   6
                      10  10  10  10   5  10  10  10   5  10
 22      1     1       5
                      10
                       8
                       9
 23      1    10       8   4   8   4   8   4   8   4   8   8
                       0   0   0   0   0   0   0   0   0   0
                       7   4   7   4   7   4   7   4   7   7
                       6   3   6   3   6   3   6   3   6   6
 24      1     5       5   3   3   5   5
                       4   2   2   4   4
                       1   1   1   1   1
                       3   2   2   3   3
 25      1     1       8
                       0
                       0
                       5
 26      1     3       0   0   0
                       1   1   1
                       8   4   8
                       9   5   9
 27      1    10       5   5   5   5   3   3   5   5   3   5
                       4   4   4   4   2   2   4   4   2   4
                       6   6   6   6   3   3   6   6   3   6
                       9   9   9   9   5   5   9   9   5   9
 28      1     3       0   0   0
                       0   0   0
                       0   0   0
                       7   7   4
 29      1     4       4   7   7   7
                       4   7   7   7
                       5   9   9   9
                       2   4   4   4
 30      1     1       3
                       8
                       2
                       0
 31      1     6       3   2   3   3   3   2
                       6   3   6   6   6   3
                       1   1   1   1   1   1
                       2   1   2   2   2   1
 32      1     4       8   8   8   8
                       2   2   2   2
                       4   4   4   4
                       1   1   1   1
 33      1     4       4   7   4   7
                       0   0   0   0
                       2   3   2   3
                       0   0   0   0
 34      1     3       8   4   8
                       7   4   7
                       1   1   1
                       0   0   0
 35      1     3       1   1   1
                       2   3   3
                       2   4   4
                       0   0   0
 36      1     3       0   0   0
                       8   8   8
                      10  10  10
                       4   4   4
 37      1     1       0
                      10
                       5
                       2
 38      1     5       7   7   7   7   7
                      10  10  10  10  10
                       9   9   9   9   9
                       2   2   2   2   2
 39      1     5       0   0   0   0   0
                       5   9   9   9   9
                       5   9   9   9   9
                       4   7   7   7   7
 40      1    10       0   0   0   0   0   0   0   0   0   0
                       6   6   6   3   6   6   6   6   6   6
                       9   9   9   5   9   9   9   9   9   9
                       0   0   0   0   0   0   0   0   0   0
 41      1    10       2   2   2   2   2   2   2   2   2   2
                       4   4   4   4   4   4   4   4   4   4
                       0   0   0   0   0   0   0   0   0   0
                       0   0   0   0   0   0   0   0   0   0
 42      1     8       8   8   8   8   4   8   8   8
                       6   6   6   6   3   6   6   6
                       0   0   0   0   0   0   0   0
                       0   0   0   0   0   0   0   0
 43      1     5       8   8   8   8   8
                       0   0   0   0   0
                       0   0   0   0   0
                       5   5   5   5   5
 44      1     9       3   6   3   6   3   6   6   6   6
                       0   0   0   0   0   0   0   0   0
                       5   9   5   9   5   9   9   9   9
                       5   9   5   9   5   9   9   9   9
 45      1     3      10   5  10
                       4   2   4
                      10   5  10
                       0   0   0
 46      1     3       0   0   0
                       0   0   0
                       2   2   3
                       4   4   7
 47      1    10       0   0   0   0   0   0   0   0   0   0
                       2   4   4   4   4   4   4   4   2   4
                       1   1   1   1   1   1   1   1   1   1
                       0   0   0   0   0   0   0   0   0   0
 48      1     2       0   0
                       0   0
                       4   4
                       7   7
 49      1     9       4   7   7   7   7   7   7   7   7
                       3   5   5   5   5   5   5   5   5
                       0   0   0   0   0   0   0   0   0
                       5   9   9   9   9   9   9   9   9
 50      1     1      10
                       6
                       0
                      10
 51      1     6       5  10  10  10  10  10
                       1   2   2   2   2   2
                       0   0   0   0   0   0
                       2   3   3   3   3   3
 52      1     1       8
                       7
                       0
                       0
 53      1     5       8   8   8   8   8
                       7   7   7   7   7
                       8   8   8   8   8
                       7   7   7   7   7
 54      1    10       6   6   6   3   6   6   6   3   6   6
                       2   2   2   1   2   2   2   1   2   2
                       0   0   0   0   0   0   0   0   0   0
                       8   8   8   4   8   8   8   4   8   8
 55      1     1       9
                       0
                       4
                       6
 56      1     2       1   1
                       0   0
                       0   0
                       9   9
 57      1     5       5  10  10  10   5
                       0   0   0   0   0
                       3   6   6   6   3
                       5  10  10  10   5
 58      1     7       7   4   7   7   7   7   7
                       0   0   0   0   0   0   0
                       1   1   1   1   1   1   1
                       9   5   9   9   9   9   9
 59      1    10       6   3   6   3   6   6   6   6   6   6
                       7   4   7   4   7   7   7   7   7   7
                       0   0   0   0   0   0   0   0   0   0
                       0   0   0   0   0   0   0   0   0   0
 60      1     9       0   0   0   0   0   0   0   0   0
                       7   4   7   7   7   4   4   7   7
                       5   3   5   5   5   3   3   5   5
                       4   2   4   4   4   2   2   4   4
 61      1     2       0   0
                       1   1
                       4   4
                       3   3
 62      1     9       7   7   7   7   7   7   7   7   7
                       9   9   9   9   9   9   9   9   9
                      10  10  10  10  10  10  10  10  10
                      10  10  10  10  10  10  10  10  10
 63      1     9       4   7   7   7   7   4   7   7   7
                       2   4   4   4   4   2   4   4   4
                       0   0   0   0   0   0   0   0   0
                       3   6   6   6   6   3   6   6   6
 64      1     9       0   0   0   0   0   0   0   0   0
                       6   3   6   6   3   6   6   6   6
                       7   4   7   7   4   7   7   7   7
                       0   0   0   0   0   0   0   0   0
 65      1     4       6   6   6   6
                       5   5   5   5
                       9   9   9   9
                       6   6   6   6
 66      1     1       8
                       2
                       0
                       2
 67      1     8       7   7   7   7   4   7   4   4
                       2   2   2   2   1   2   1   1
                      10  10  10  10   5  10   5   5
                       6   6   6   6   3   6   3   3
 68      1    10       1   1   1   1   1   1   1   1   1   1
                       5   5   5   3   5   5   5   5   5   5
                       8   8   8   4   8   8   8   8   8   8
                       1   1   1   1   1   1   1   1   1   1
 69      1     5       2   2   2   2   2
                       3   3   3   3   3
                       7   7   7   7   7
                       0   0   0   0   0
 70      1     7       3   3   3   3   3   3   2
                       0   0   0   0   0   0   0
                       8   8   8   8   8   8   4
                       1   1   1   1   1   1   1
 71      1    10      10  10  10  10   5  10  10  10  10  10
                       0   0   0   0   0   0   0   0   0   0
                       8   8   8   8   4   8   8   8   8   8
                       2   2   2   2   1   2   2   2   2   2
 72      1     6       5  10  10  10  10  10
                       0   0   0   0   0   0
                       1   2   2   2   2   2
                       2   3   3   3   3   3
 73      1     4       1   1   1   1
                       0   0   0   0
                       0   0   0   0
                       2   2   2   2
 74      1     6       0   0   0   0   0   0
                       5   3   3   5   5   5
                       8   4   4   8   8   8
                       6   3   3   6   6   6
 75      1     7       3   5   5   3   3   5   5
                       3   6   6   3   3   6   6
                       0   0   0   0   0   0   0
                       5   9   9   5   5   9   9
 76      1     4       0   0   0   0
                       3   2   3   3
                       0   0   0   0
                       3   2   3   3
 77      1     9       0   0   0   0   0   0   0   0   0
                       2   2   2   1   2   2   2   2   2
                       9   9   9   5   9   9   9   9   9
                       6   6   6   3   6   6   6   6   6
 78      1     3       0   0   0
                       6   6   6
                       2   2   2
                       9   9   9
 79      1    10       0   0   0   0   0   0   0   0   0   0
                       7   4   7   7   7   7   7   7   7   7
                       6   3   6   6   6   6   6   6   6   6
                       7   4   7   7   7   7   7   7   7   7
 80      1     4       2   1   2   2
                       7   4   7   7
                       7   4   7   7
                       0   0   0   0
 81      1     3       2   1   2
                       0   0   0
                       0   0   0
                       7   4   7
 82      1     9       6   6   6   6   6   6   6   3   6
                       8   8   8   8   8   8   8   4   8
                       1   1   1   1   1   1   1   1   1
                       2   2   2   2   2   2   2   1   2
 83      1     6       4   4   4   4   2   4
                       1   1   1   1   1   1
                       3   3   3   3   2   3
                       9   9   9   9   5   9
 84      1     5       0   0   0   0   0
                       6   6   6   6   6
                       5   5   5   5   5
                       0   0   0   0   0
 85      1     3       7   7   4
                       5   5   3
                       0   0   0
                       0   0   0
 86      1    10       1   1   1   1   1   1   1   1   1   1
                       9   9   9   5   9   5   9   9   5   9
                       5   5   5   3   5   3   5   5   3   5
                       7   7   7   4   7   4   7   7   4   7
 87      1     3       3   6   6
                       4   8   8
                       2   4   4
                       4   7   7
 88      1     8       0   0   0   0   0   0   0   0
                       7   4   7   7   7   7   7   7
                       7   4   7   7   7   7   7   7
                       3   2   3   3   3   3   3   3
 89      1     5      10  10  10  10  10
                       6   6   6   6   6
                       8   8   8   8   8
                       4   4   4   4   4
 90      1     9       6   3   6   6   6   6   6   3   6
                       2   1   2   2   2   2   2   1   2
                       8   4   8   8   8   8   8   4   8
                       4   2   4   4   4   4   4   2   4
 91      1     2       2   3
                       0   0
                       1   2
                       2   4
 92      1     7       9   9   5   9   9   9   9
                       0   0   0   0   0   0   0
                       9   9   5   9   9   9   9
                       1   1   1   1   1   1   1
 93      1     8       9   5   9   9   9   9   9   9
                       6   3   6   6   6   6   6   6
                       2   1   2   2   2   2   2   2
                       0   0   0   0   0   0   0   0
 94      1     3       3   3   5
                       3   3   5
                       0   0   0
                       2   2   3
 95      1     5       1   1   1   1   1
                       3   6   6   6   6
                       1   2   2   2   2
                       1   2   2   2   2
 96      1     2       3   3
                       9   9
                       7   7
                       2   2
 97      1     8       0   0   0   0   0   0   0   0
                       8   8   8   8   8   8   8   8
                       4   4   4   4   4   4   4   4
                       5   5   5   5   5   5   5   5
 98      1     9       2   2   2   2   2   1   1   1   2
                      10  10  10  10  10   5   5   5  10
                       3   3   3   3   3   2   2   2   3
                       0   0   0   0   0   0   0   0   0
 99      1     1       7
                       6
                       5
                       5
100      1     5       0   0   0   0   0
                       1   1   1   1   1
                       8   8   8   8   8
                       2   2   2   2   2
101      1     3       0   0   0
                       0   0   0
                       8   8   8
                       6   6   6
102      1     2       0   0
                       4   2
                       9   5
                       8   4
103      1     2       5   5
                       9   9
                       4   4
                       8   8
104      1     5       7   7   7   7   7
                       1   1   1   1   1
                       0   0   0   0   0
                       0   0   0   0   0
105      1     2      10  10
                       2   2
                       0   0
                       0   0
106      1     9       2   2   2   2   2   2   2   2   2
                       3   3   3   3   3   3   3   3   3
                       7   7   7   7   7   7   7   7   7
                       0   0   0   0   0   0   0   0   0
107      1     1       4
                       0
                      10
                       1
108      1     2       1   1
                       1   1
                       2   1
                       3   2
109      1     7       7   7   7   7   7   7   7
                       0   0   0   0   0   0   0
                       4   4   4   4   4   4   4
                       0   0   0   0   0   0   0
110      1     5       0   0   0   0   0
                       0   0   0   0   0
                       1   1   1   1   1
                       4   4   4   4   4
111      1     6       0   0   0   0   0   0
                       0   0   0   0   0   0
                       2   2   1   2   2   1
                       9   9   5   9   9   5
112      1     4       0   0   0   0
                       2   2   2   2
                       3   3   3   3
                       1   1   1   1
113      1     3       3   3   3
                       1   1   1
                       6   6   6
                       0   0   0
114      1     5       1   1   1   1   1
                       0   0   0   0   0
                       0   0   0   0   0
                       7   7   7   7   4
115      1     3       5   9   9
                       4   8   8
                       0   0   0
                       0   0   0
116      1     4       9   9   9   9
                       2   2   2   2
                       0   0   0   0
                       0   0   0   0
117      1     3       8   8   8
                       1   1   1
                       2   2   2
                       8   8   8
118      1     8       0   0   0   0   0   0   0   0
                       6   6   6   6   6   6   6   6
                      10  10  10  10  10  10  10  10
                      10  10  10  10  10  10  10  10
119      1     8       7   7   7   7   7   7   4   4
                       0   0   0   0   0   0   0   0
                       4   4   4   4   4   4   2   2
                       9   9   9   9   9   9   5   5
120      1     4       2   4   4   4
                       1   2   2   2
                       5  10  10  10
                       3   5   5   5
121      1     8       3   3   3   3   3   3   3   3
                       7   7   7   7   7   7   7   7
                       8   8   8   8   8   8   8   8
                       1   1   1   1   1   1   1   1
122      1     0    
************************************************************************
RESOURCEAVAILABILITIES:
  R 1  R 2  R 3  R 4

  19  19  10  19  19  19  10  19  19  19  10  19  10  19  10  19  19  19  19  10  19  19  19  19  19  19  19  10  19  19  10  19  19  19  19  19  19  10  19  19  19  19  19  19  19  19  19  19  10  19  19  19  19  19  19  19  19  10  10  10  19  19  19  19  19  10  19  19  19  19  10  19  19  19  10  10  19  19  10  19  19  19  19  19  19  19  19  10  19  19  19  10  10  10  10  10  19  19  19  19  19  19  19  19  19  19  19  10  10  19  19  19  19  19  10  19  19  19  19  19  10  19  10  19  19  19  19  19  19  19  10  19  19  10  19  19  19  10  19  19  10  19  19  19  19  19  19  19  19  19  19  19  19  19  19  19  19  19  19  19  19  19  19  19  19  19  10  19  19  19  19  19  10  19  19  19  19  19  19  19  10  19  19  10  19  10  10  19  19  10  10  19  19  19  19  19  19  19  10  19  19  19  19  19  10  19  10  10  19  19  19  19  19  19  19  19  19  19  19  19  10  19  19  19  19  19  19  19  19  19  19  10  19  10  19  19  19  19  19  19  19  19  19  19  19  19  19  19  19  19  10  19  19  19  19  19  19  10  19  19  19  19  10  19  19  19  19  19  19  19  19  19  19  19  19  10  10  19  10  10  19  19  10  10  19  19  10  19  19  19  10  19  10  10  19  10  19  19  19  19  19  19  19  19  19  19  19  10  19  10  19  19  19  19  10  19  19  10  19  10  10  19  10  19  19  19  19  10  19  10  19  19  19  19  10  19  19  19  19  10  19  19  19  19  19  19  19  19  19  19  10  19  10  19  19  19  19  19  19  19  19  19  19  19  19  19  19  10  19  19  19  19  19  10  19  19  10  19  19  19  19  19  19  19  19  19  19  19  10  19  19  19  19  10  19  19  10  19  19  19  19  19  10  19  10  19  19  19  19  19  19  19  19  10  10  19  19  19  19  10  19  19  19  19  19  19  19  19  10  19  19  19  19  19  19  19  10  19  19  19  19  19  19  19  19  10  19  19  19  10  19  10  19  19  19  19  19  19  19  19  19  19  19  19  19  19  10  19  19  19  19  19  19  19  19  19  19  19  19  19  10  10  19  10  19  19  19  10  19  19  19  19  19  19  19  19  19  19  19  19  10  19  10  19  19  19  19  19  19  10  19  19  19  19  19  10  10  10  19  19  19  19  19  19  19  10  19  19  19  19  19  19  19  19  10  19  19  19  19  19  19  10  19  19  19  10  19  19  19  19  19  19  19  10  19  19  19  19  19  10  19  19  19  10  19  10  19  19  19  19  10  19  19  10  10  19  10  19  10  19  19  19  19  19  10  19  10  19  19  19  19  10  10  19  10  19  10  19  10  19  19  10  10  19  10  19  19  19  19  19  19  10  19  10  19  19  19  10  19  19  19  19  19  19  19  19  19  19  19  19  19  10  10  19  19  19  19  10  19  19  19  19  19  19  19  19  19  19  19  10  10  19  19  19  19  10  10  19  19

  17  17   9  17  17  17   9  17  17  17   9  17   9  17   9  17  17  17  17   9  17  17  17  17  17  17  17   9  17  17   9  17  17  17  17  17  17   9  17  17  17  17  17  17  17  17  17  17   9  17  17  17  17  17  17  17  17   9   9   9  17  17  17  17  17   9  17  17  17  17   9  17  17  17   9   9  17  17   9  17  17  17  17  17  17  17  17   9  17  17  17   9   9   9   9   9  17  17  17  17  17  17  17  17  17  17  17   9   9  17  17  17  17  17   9  17  17  17  17  17   9  17   9  17  17  17  17  17  17  17   9  17  17   9  17  17  17   9  17  17   9  17  17  17  17  17  17  17  17  17  17  17  17  17  17  17  17  17  17  17  17  17  17  17  17  17   9  17  17  17  17  17   9  17  17  17  17  17  17  17   9  17  17   9  17   9   9  17  17   9   9  17  17  17  17  17  17  17   9  17  17  17  17  17   9  17   9   9  17  17  17  17  17  17  17  17  17  17  17  17   9  17  17  17  17  17  17  17  17  17  17   9  17   9  17  17  17  17  17  17  17  17  17  17  17  17  17  17  17  17   9  17  17  17  17  17  17   9  17  17  17  17   9  17  17  17  17  17  17  17  17  17  17  17  17   9   9  17   9   9  17  17   9   9  17  17   9  17  17  17   9  17   9   9  17   9  17  17  17  17  17  17  17  17  17  17  17   9  17   9  17  17  17  17   9  17  17   9  17   9   9  17   9  17  17  17  17   9  17   9  17  17  17  17   9  17  17  17  17   9  17  17  17  17  17  17  17  17  17  17   9  17   9  17  17  17  17  17  17  17  17  17  17  17  17  17  17   9  17  17  17  17  17   9  17  17   9  17  17  17  17  17  17  17  17  17  17  17   9  17  17  17  17   9  17  17   9  17  17  17  17  17   9  17   9  17  17  17  17  17  17  17  17   9   9  17  17  17  17   9  17  17  17  17  17  17  17  17   9  17  17  17  17  17  17  17   9  17  17  17  17  17  17  17  17   9  17  17  17   9  17   9  17  17  17  17  17  17  17  17  17  17  17  17  17  17   9  17  17  17  17  17  17  17  17  17  17  17  17  17   9   9  17   9  17  17  17   9  17  17  17  17  17  17  17  17  17  17  17  17   9  17   9  17  17  17  17  17  17   9  17  17  17  17  17   9   9   9  17  17  17  17  17  17  17   9  17  17  17  17  17  17  17  17   9  17  17  17  17  17  17   9  17  17  17   9  17  17  17  17  17  17  17   9  17  17  17  17  17   9  17  17  17   9  17   9  17  17  17  17   9  17  17   9   9  17   9  17   9  17  17  17  17  17   9  17   9  17  17  17  17   9   9  17   9  17   9  17   9  17  17   9   9  17   9  17  17  17  17  17  17   9  17   9  17  17  17   9  17  17  17  17  17  17  17  17  17  17  17  17  17   9   9  17  17  17  17   9  17  17  17  17  17  17  17  17  17  17  17   9   9  17  17  17  17   9   9  17  17

  18  18   9  18  18  18   9  18  18  18   9  18   9  18   9  18  18  18  18   9  18  18  18  18  18  18  18   9  18  18   9  18  18  18  18  18  18   9  18  18  18  18  18  18  18  18  18  18   9  18  18  18  18  18  18  18  18   9   9   9  18  18  18  18  18   9  18  18  18  18   9  18  18  18   9   9  18  18   9  18  18  18  18  18  18  18  18   9  18  18  18   9   9   9   9   9  18  18  18  18  18  18  18  18  18  18  18   9   9  18  18  18  18  18   9  18  18  18  18  18   9  18   9  18  18  18  18  18  18  18   9  18  18   9  18  18  18   9  18  18   9  18  18  18  18  18  18  18  18  18  18  18  18  18  18  18  18  18  18  18  18  18  18  18  18  18   9  18  18  18  18  18   9  18  18  18  18  18  18  18   9  18  18   9  18   9   9  18  18   9   9  18  18  18  18  18  18  18   9  18  18  18  18  18   9  18   9   9  18  18  18  18  18  18  18  18  18  18  18  18   9  18  18  18  18  18  18  18  18  18  18   9  18   9  18  18  18  18  18  18  18  18  18  18  18  18  18  18  18  18   9  18  18  18  18  18  18   9  18  18  18  18   9  18  18  18  18  18  18  18  18  18  18  18  18   9   9  18   9   9  18  18   9   9  18  18   9  18  18  18   9  18   9   9  18   9  18  18  18  18  18  18  18  18  18  18  18   9  18   9  18  18  18  18   9  18  18   9  18   9   9  18   9  18  18  18  18   9  18   9  18  18  18  18   9  18  18  18  18   9  18  18  18  18  18  18  18  18  18  18   9  18   9  18  18  18  18  18  18  18  18  18  18  18  18  18  18   9  18  18  18  18  18   9  18  18   9  18  18  18  18  18  18  18  18  18  18  18   9  18  18  18  18   9  18  18   9  18  18  18  18  18   9  18   9  18  18  18  18  18  18  18  18   9   9  18  18  18  18   9  18  18  18  18  18  18  18  18   9  18  18  18  18  18  18  18   9  18  18  18  18  18  18  18  18   9  18  18  18   9  18   9  18  18  18  18  18  18  18  18  18  18  18  18  18  18   9  18  18  18  18  18  18  18  18  18  18  18  18  18   9   9  18   9  18  18  18   9  18  18  18  18  18  18  18  18  18  18  18  18   9  18   9  18  18  18  18  18  18   9  18  18  18  18  18   9   9   9  18  18  18  18  18  18  18   9  18  18  18  18  18  18  18  18   9  18  18  18  18  18  18   9  18  18  18   9  18  18  18  18  18  18  18   9  18  18  18  18  18   9  18  18  18   9  18   9  18  18  18  18   9  18  18   9   9  18   9  18   9  18  18  18  18  18   9  18   9  18  18  18  18   9   9  18   9  18   9  18   9  18  18   9   9  18   9  18  18  18  18  18  18   9  18   9  18  18  18   9  18  18  18  18  18  18  18  18  18  18  18  18  18   9   9  18  18  18  18   9  18  18  18  18  18  18  18  18  18  18  18   9   9  18  18  18  18   9   9  18  18

  19  19  10  19  19  19  10  19  19  19  10  19  10  19  10  19  19  19  19  10  19  19  19  19  19  19  19  10  19  19  10  19  19  19  19  19  19  10  19  19  19  19  19  19  19  19  19  19  10  19  19  19  19  19  19  19  19  10  10  10  19  19  19  19  19  10  19  19  19  19  10  19  19  19  10  10  19  19  10  19  19  19  19  19  19  19  19  10  19  19  19  10  10  10  10  10  19  19  19  19  19  19  19  19  19  19  19  10  10  19  19  19  19  19  10  19  19  19  19  19  10  19  10  19  19  19  19  19  19  19  10  19  19  10  19  19  19  10  19  19  10  19  19  19  19  19  19  19  19  19  19  19  19  19  19  19  19  19  19  19  19  19  19  19  19  19  10  19  19  19  19  19  10  19  19  19  19  19  19  19  10  19  19  10  19  10  10  19  19  10  10  19  19  19  19  19  19  19  10  19  19  19  19  19  10  19  10  10  19  19  19  19  19  19  19  19  19  19  19  19  10  19  19  19  19  19  19  19  19  19  19  10  19  10  19  19  19  19  19  19  19  19  19  19  19  19  19  19  19  19  10  19  19  19  19  19  19  10  19  19  19  19  10  19  19  19  19  19  19  19  19  19  19  19  19  10  10  19  10  10  19  19  10  10  19  19  10  19  19  19  10  19  10  10  19  10  19  19  19  19  19  19  19  19  19  19  19  10  19  10  19  19  19  19  10  19  19  10  19  10  10  19  10  19  19  19  19  10  19  10  19  19  19  19  10  19  19  19  19  10  19  19  19  19  19  19  19  19  19  19  10  19  10  19  19  19  19  19  19  19  19  19  19  19  19  19  19  10  19  19  19  19  19  10  19  19  10  19  19  19  19  19  19  19  19  19  19  19  10  19  19  19  19  10  19  19  10  19  19  19  19  19  10  19  10  19  19  19  19  19  19  19  19  10  10  19  19  19  19  10  19  19  19  19  19  19  19  19  10  19  19  19  19  19  19  19  10  19  19  19  19  19  19  19  19  10  19  19  19  10  19  10  19  19  19  19  19  19  19  19  19  19  19  19  19  19  10  19  19  19  19  19  19  19  19  19  19  19  19  19  10  10  19  10  19  19  19  10  19  19  19  19  19  19  19  19  19  19  19  19  10  19  10  19  19  19  19  19  19  10  19  19  19  19  19  10  10  10  19  19  19  19  19  19  19  10  19  19  19  19  19  19  19  19  10  19  19  19  19  19  19  10  19  19  19  10  19  19  19  19  19  19  19  10  19  19  19  19  19  10  19  19  19  10  19  10  19  19  19  19  10  19  19  10  10  19  10  19  10  19  19  19  19  19  10  19  10  19  19  19  19  10  10  19  10  19  10  19  10  19  19  10  10  19  10  19  19  19  19  19  19  10  19  10  19  19  19  10  19  19  19  19  19  19  19  19  19  19  19  19  19  10  10  19  19  19  19  10  19  19  19  19  19  19  19  19  19  19  19  10  10  19  19  19  19  10  10  19  19

************************************************************************
